&control
    prefix = 'be'
    calculation = 'scf'
    restart_mode = 'from_scratch'
    pseudo_dir = './pseudo/'
    outdir = './scratch/'
    tstress = .true.
    tprnfor = .true.
/
&system
    ibrav = 8
    a = 5.75877
    b = 3.88796
    c = 3.88796
    nat = 32
    ntyp = 1
    nbnd = 576 
    ecutwfc = 1000.
    ecutrho = 2000.
    nosym = .true.
    occupations = 'smearing'
    smearing = 'fermi-dirac'
    degauss = 0.955482376567 
/
&electrons
    diagonalization = 'david'
    conv_thr = 1.d-08
/
&ions
    ion_velocities = 'from_input'
/

ATOMIC_SPECIES
Be   0    Be.pz-n-kjpaw_psl.0.2.UPF

K_POINTS crystal
1
0.25 0.25 0.25 1

ATOMIC_POSITIONS crystal 
Be  0.2867360214017248  0.7313648533414382  0.4953442044637034
Be  0.1318962007919295  0.4014333084558147  0.0640870408705148
Be  0.5044032509388505  0.8984216805636572  0.2365649936827335
Be  0.9791801487789369  0.0543683578018688  0.2321274540474758
Be  0.5877701219484865  0.4847469280470547  0.3843594403992703
Be  0.4849303560932625  0.7223662992846241  0.0560224513374370
Be  0.2202032024353134  0.1459104695353066  0.8126346020116987
Be  0.7538894926364815  0.6236305671942636  0.4618679959398153
Be  0.0161778296283217  0.2622169014743495  0.8940028366782530
Be  0.9853502341495008  0.8422310377137385  0.8924392367381128
Be  0.4404941423772141  0.6512506411496461  0.6450788157722893
Be  0.2538211903552655  0.0441855767069429  0.3936444226984238
Be  0.9459224952784111  0.7363381175036956  0.2775757602410878
Be  0.5648794744450757  0.5490792794763452  0.7369054196875789
Be  0.9067127283515112  0.4491473363216344  0.8938637122637453
Be  0.1384393868850387  0.2852129051005397  0.2426658675592317
Be  0.3715079681814445  0.1730568629456630  0.2717006685861313
Be  0.6356748470072174  0.0027682811484198  0.6850211723645837
Be  0.9631538233885387  0.5515561380252380  0.3922446186594251
Be  0.5243930747806682  0.1648583360910134  0.0043221875676986
Be  0.7719878231812938  0.1316776787379381  0.4122536583970711
Be  0.5136149917274740  0.3065863377183859  0.4673921867368509
Be  0.3322909066411044  0.4806994973830439  0.8660546783891461
Be  0.3846864989008558  0.9927302717124705  0.4848504639248719
Be  0.0302069165254612  0.0877705606537802  0.5241820064425339
Be  0.9260412819905288  0.9529630524931282  0.4274651238192288
Be  0.5410376658114675  0.3968361424925117  0.1810049022223583
Be  0.3974560684111751  0.9815987045352375  0.0128460556184621
Be  0.9853533201849428  0.4490470284423003  0.6447247139820864
Be  0.9211320370705139  0.2593166832358810  0.1850236581215076
Be  0.8467990076443868  0.1351343091835149  0.8882894657077810
Be  0.2768511177577435  0.7219973225305659  0.9926305315690300

ATOMIC_VELOCITIES
Be -0.98950290E-01  0.11743630E-01  0.42027930E-01
Be  0.19972850E+00  0.20246924E+00  0.19988680E+00
Be -0.42674233E-01 -0.39704347E-01  0.15540343E+00
Be  0.28776969E-01 -0.65470584E-01 -0.29044291E-02
Be -0.13462782E+00 -0.10327999E+00 -0.28545351E+00
Be  0.10401352E+00 -0.19000557E-01  0.91682909E-01
Be  0.12761686E+00 -0.14999790E+00  0.48598971E-01
Be  0.89317852E-01  0.81092136E-01 -0.11712716E+00
Be  0.23930061E-02 -0.11717728E+00  0.38078819E-01
Be  0.21479591E+00 -0.84920564E-01 -0.70812769E-01
Be -0.11693082E+00  0.13846010E+00 -0.35873437E-01
Be  0.10353913E+00  0.54996192E-01 -0.30820089E-01
Be -0.15779581E+00  0.57567076E-01 -0.23026963E+00
Be -0.29367431E-01  0.46095302E-01  0.35902938E-01
Be  0.47650356E-01 -0.19057195E-01  0.74824119E-01
Be -0.58708531E-02  0.19083382E+00  0.14462910E+00
Be  0.14037498E-01 -0.29856814E-01  0.13822363E-01
Be  0.18864619E-01 -0.48658176E-01 -0.36673401E-01
Be -0.30027694E-01 -0.31090010E-01  0.22934687E+00
Be -0.41311090E-01 -0.15683612E+00  0.16692718E+00
Be  0.94001114E-01  0.18720758E+00 -0.68844485E-01
Be -0.62190961E-01  0.21009928E-02 -0.67240094E-01
Be -0.19888219E+00 -0.20831222E+00  0.23040587E+00
Be -0.97805568E-01  0.95543203E-01 -0.25927740E+00
Be -0.42448861E-01 -0.10271039E-01  0.35379126E-01
Be -0.90091200E-01  0.21214366E-01  0.15553653E+00
Be  0.11646349E+00  0.88943504E-01  0.51578287E-02
Be -0.11248908E+00 -0.82028055E-01 -0.22556265E-01
Be  0.36904994E-01 -0.11779243E-02 -0.20271128E+00
Be -0.23821707E-01  0.55273776E-01 -0.17930128E+00
Be  0.35468831E-01 -0.89584673E-01  0.22225290E-01
Be  0.51712952E-01  0.22882529E-01 -0.79970837E-01
