&control
    prefix = 'li'
    calculation = 'scf'
    restart_mode = 'from_scratch'
    pseudo_dir = './pseudo/'
    outdir = './scratch/'
    tstress = .true.
    tprnfor = .true.
/
&system
    ibrav = 1
    a = 3.51
    nat = 2
    ntyp = 1
    nbnd = 10 
    ecutwfc = 100.
    ecutrho = 400.
    nosym = .true.
/
&electrons
    diagonalization = 'david'
    conv_thr = 1.d-06
/
ATOMIC_SPECIES
Li   0    Li.pbe-sl-rrkjus_psl.1.0.0.UPF

K_POINTS automatic
8 8 8    0 0 0

ATOMIC_POSITIONS alat
Li  0.000000000 0.000000000 0.000000000
Li  0.500000000 0.500000000 0.500000000
